\ENCODING=ISO-8859-1
\Problem name: kMIS

Maximize
 obj: x1 + x2 + x3 + x4 + x5 + x6 + x7 + x8 + x9 + x10 + x11 + x12 + x13 + x14
      + x15 + x16 + x17 + x18 + x19 + x20
Subject To
 c1:  x21 + x22 + x23 + x24 + x25 + x26 + x27 + x28 + x29 + x30 + x31 + x32
      + x33 + x34 + x35 + x36 + x37 + x38 + x39 + x40  = 5
 c2:  x6 + x21 <= 1
 c3:  x9 + x21 <= 1
 c4:  x12 + x21 <= 1
 c5:  x16 + x21 <= 1
 c6:  x17 + x21 <= 1
 c7:  x19 + x21 <= 1
 c8:  x3 + x22 <= 1
 c9:  x5 + x22 <= 1
 c10: x11 + x22 <= 1
 c11: x17 + x22 <= 1
 c12: x20 + x22 <= 1
 c13: x3 + x23 <= 1
 c14: x8 + x23 <= 1
 c15: x10 + x23 <= 1
 c16: x14 + x23 <= 1
 c17: x16 + x23 <= 1
 c18: x2 + x24 <= 1
 c19: x7 + x24 <= 1
 c20: x9 + x24 <= 1
 c21: x15 + x24 <= 1
 c22: x1 + x25 <= 1
 c23: x4 + x25 <= 1
 c24: x7 + x25 <= 1
 c25: x11 + x25 <= 1
 c26: x12 + x25 <= 1
 c27: x14 + x25 <= 1
 c28: x18 + x25 <= 1
 c29: x6 + x26 <= 1
 c30: x12 + x26 <= 1
 c31: x15 + x26 <= 1
 c32: x19 + x26 <= 1
 c33: x2 + x27 <= 1
 c34: x7 + x27 <= 1
 c35: x9 + x27 <= 1
 c36: x15 + x27 <= 1
 c37: x1 + x28 <= 1
 c38: x4 + x28 <= 1
 c39: x6 + x28 <= 1
 c40: x7 + x28 <= 1
 c41: x18 + x28 <= 1
 c42: x19 + x28 <= 1
 c43: x9 + x29 <= 1
 c44: x15 + x29 <= 1
 c45: x1 + x30 <= 1
 c46: x4 + x30 <= 1
 c47: x7 + x30 <= 1
 c48: x11 + x30 <= 1
 c49: x12 + x30 <= 1
 c50: x14 + x30 <= 1
 c51: x18 + x30 <= 1
 c52: x6 + x31 <= 1
 c53: x12 + x31 <= 1
 c54: x13 + x31 <= 1
 c55: x15 + x31 <= 1
 c56: x19 + x31 <= 1
 c57: x2 + x32 <= 1
 c58: x7 + x32 <= 1
 c59: x9 + x32 <= 1
 c60: x10 + x32 <= 1
 c61: x1 + x33 <= 1
 c62: x4 + x33 <= 1
 c63: x6 + x33 <= 1
 c64: x7 + x33 <= 1
 c65: x15 + x33 <= 1
 c66: x19 + x33 <= 1
 c67: x1 + x34 <= 1
 c68: x7 + x34 <= 1
 c69: x13 + x34 <= 1
 c70: x14 + x34 <= 1
 c71: x16 + x34 <= 1
 c72: x20 + x34 <= 1
 c73: x2 + x35 <= 1
 c74: x9 + x35 <= 1
 c75: x15 + x35 <= 1
 c76: x1 + x36 <= 1
 c77: x4 + x36 <= 1
 c78: x6 + x36 <= 1
 c79: x7 + x36 <= 1
 c80: x19 + x36 <= 1
 c81: x2 + x37 <= 1
 c82: x9 + x37 <= 1
 c83: x15 + x37 <= 1
 c84: x1 + x38 <= 1
 c85: x4 + x38 <= 1
 c86: x7 + x38 <= 1
 c87: x11 + x38 <= 1
 c88: x12 + x38 <= 1
 c89: x14 + x38 <= 1
 c90: x18 + x38 <= 1
 c91: x6 + x39 <= 1
 c92: x12 + x39 <= 1
 c93: x13 + x39 <= 1
 c94: x15 + x39 <= 1
 c95: x19 + x39 <= 1
 c96: x9 + x40 <= 1
 c97: x10 + x40 <= 1
 c98: x14 + x40 <= 1
Bounds
 0 <= x1 <= 1
 0 <= x2 <= 1
 0 <= x3 <= 1
 0 <= x4 <= 1
 0 <= x5 <= 1
 0 <= x6 <= 1
 0 <= x7 <= 1
 0 <= x8 <= 1
 0 <= x9 <= 1
 0 <= x10 <= 1
 0 <= x11 <= 1
 0 <= x12 <= 1
 0 <= x13 <= 1
 0 <= x14 <= 1
 0 <= x15 <= 1
 0 <= x16 <= 1
 0 <= x17 <= 1
 0 <= x18 <= 1
 0 <= x19 <= 1
 0 <= x20 <= 1
 0 <= x21 <= 1
 0 <= x22 <= 1
 0 <= x23 <= 1
 0 <= x24 <= 1
 0 <= x25 <= 1
 0 <= x26 <= 1
 0 <= x27 <= 1
 0 <= x28 <= 1
 0 <= x29 <= 1
 0 <= x30 <= 1
 0 <= x31 <= 1
 0 <= x32 <= 1
 0 <= x33 <= 1
 0 <= x34 <= 1
 0 <= x35 <= 1
 0 <= x36 <= 1
 0 <= x37 <= 1
 0 <= x38 <= 1
 0 <= x39 <= 1
 0 <= x40 <= 1
Binaries
 x1  x2  x3  x4  x5  x6  x7  x8  x9  x10  x11  x12  x13  x14  x15  x16  x17 
 x18  x19  x20  x21  x22  x23  x24  x25  x26  x27  x28  x29  x30  x31  x32 
 x33  x34  x35  x36  x37  x38  x39  x40 
End
